c THIS FORMULA IS GENERATED BY CNF
c 
c atomics
c X_GS <= 37.89_3_n:1
c X_PI <= 42.09_1_n:2
c C_4_2:3
c X_PI <= 48.12_5_n:4
c X_PI <= 42.09_8_n:5
c X_PI <= 48.12_2_s:6
c X_PI <= 48.12_6_n:7
c X_PI <= 48.12_1_n:8
c X_PI <= 42.09_7_s:9
c X_PI <= 48.12_1_p:10
c X_PI <= 48.12_4_p:11
c C_6_2:12
c C_3_2:13
c C_5_2:14
c X_PI <= 42.09_7_n:15
c X_PI <= 42.09_1_p:16
c C_7_1:17
c X_GS <= 37.89_8_p:18
c X_GS <= 37.89_1_s:19
c X_PI <= 48.12_8_p:20
c X_GS <= 37.89_1_n:21
c X_GS <= 37.89_7_p:22
c X_GS <= 37.89_4_s:23
c X_PI <= 42.09_7_p:24
c X_GS <= 37.89_7_s:25
c C_5_1:26
c C_1_1:27
c X_GS <= 37.89_2_n:28
c X_GS <= 37.89_5_p:29
c X_GS <= 37.89_6_n:30
c X_PI <= 42.09_3_n:31
c X_GS <= 37.89_2_p:32
c X_PI <= 48.12_1_s:33
c C_7_2:34
c X_GS <= 37.89_6_p:35
c X_PI <= 42.09_1_s:36
c X_PI <= 42.09_4_n:37
c X_PI <= 42.09_2_p:38
c X_PI <= 42.09_8_p:39
c C_2_2:40
c X_GS <= 37.89_1_p:41
c C_8_1:42
c X_PI <= 42.09_5_p:43
c X_GS <= 37.89_2_s:44
c X_PI <= 48.12_3_n:45
c X_PI <= 48.12_5_p:46
c C_8_2:47
c X_PI <= 48.12_8_s:48
c X_PI <= 48.12_6_s:49
c C_6_1:50
c X_PI <= 48.12_2_n:51
c X_GS <= 37.89_4_p:52
c X_GS <= 37.89_4_n:53
c X_PI <= 48.12_2_p:54
c C_1_2:55
c X_PI <= 42.09_8_s:56
c X_GS <= 37.89_3_s:57
c X_PI <= 42.09_2_s:58
c X_PI <= 42.09_3_p:59
c X_PI <= 42.09_6_p:60
c X_GS <= 37.89_8_s:61
c X_GS <= 37.89_6_s:62
c X_PI <= 42.09_4_p:63
c X_PI <= 42.09_3_s:64
c X_PI <= 42.09_5_s:65
c X_PI <= 48.12_3_s:66
c X_PI <= 42.09_5_n:67
c C_2_1:68
c X_PI <= 48.12_6_p:69
c X_PI <= 48.12_7_p:70
c X_GS <= 37.89_7_n:71
c X_PI <= 48.12_3_p:72
c X_PI <= 48.12_8_n:73
c X_PI <= 42.09_2_n:74
c X_PI <= 48.12_4_n:75
c X_PI <= 48.12_7_n:76
c C_4_1:77
c X_PI <= 48.12_7_s:78
c X_PI <= 48.12_4_s:79
c C_3_1:80
c X_PI <= 42.09_6_n:81
c X_GS <= 37.89_5_n:82
c X_PI <= 42.09_4_s:83
c X_GS <= 37.89_5_s:84
c X_GS <= 37.89_8_n:85
c X_PI <= 42.09_6_s:86
c X_GS <= 37.89_3_p:87
c X_PI <= 48.12_5_s:88
c end atomics
p cnf 88 713
16 -16 -16 0
16 -16 -2 0
16 -16 36 0
16 2 -16 0
16 2 -2 0
16 2 36 0
16 -36 -16 0
16 -36 -2 0
16 -36 36 0
-2 -16 -16 0
-2 -16 -2 0
-2 -16 36 0
-2 2 -16 0
-2 2 -2 0
-2 2 36 0
-2 -36 -16 0
-2 -36 -2 0
-2 -36 36 0
-36 -16 -16 0
-36 -16 -2 0
-36 -16 36 0
-36 2 -16 0
-36 2 -2 0
-36 2 36 0
-36 -36 -16 0
-36 -36 -2 0
-36 -36 36 0
10 -10 -10 0
10 -10 -8 0
10 -10 33 0
10 8 -10 0
10 8 -8 0
10 8 33 0
10 -33 -10 0
10 -33 -8 0
10 -33 33 0
-8 -10 -10 0
-8 -10 -8 0
-8 -10 33 0
-8 8 -10 0
-8 8 -8 0
-8 8 33 0
-8 -33 -10 0
-8 -33 -8 0
-8 -33 33 0
-33 -10 -10 0
-33 -10 -8 0
-33 -10 33 0
-33 8 -10 0
-33 8 -8 0
-33 8 33 0
-33 -33 -10 0
-33 -33 -8 0
-33 -33 33 0
41 -41 -41 0
41 -41 -21 0
41 -41 19 0
41 21 -41 0
41 21 -21 0
41 21 19 0
41 -19 -41 0
41 -19 -21 0
41 -19 19 0
-21 -41 -41 0
-21 -41 -21 0
-21 -41 19 0
-21 21 -41 0
-21 21 -21 0
-21 21 19 0
-21 -19 -41 0
-21 -19 -21 0
-21 -19 19 0
-19 -41 -41 0
-19 -41 -21 0
-19 -41 19 0
-19 21 -41 0
-19 21 -21 0
-19 21 19 0
-19 -19 -41 0
-19 -19 -21 0
-19 -19 19 0
38 -38 -38 0
38 -38 -74 0
38 -38 58 0
38 74 -38 0
38 74 -74 0
38 74 58 0
38 -58 -38 0
38 -58 -74 0
38 -58 58 0
-74 -38 -38 0
-74 -38 -74 0
-74 -38 58 0
-74 74 -38 0
-74 74 -74 0
-74 74 58 0
-74 -58 -38 0
-74 -58 -74 0
-74 -58 58 0
-58 -38 -38 0
-58 -38 -74 0
-58 -38 58 0
-58 74 -38 0
-58 74 -74 0
-58 74 58 0
-58 -58 -38 0
-58 -58 -74 0
-58 -58 58 0
54 -54 -54 0
54 -54 -51 0
54 -54 6 0
54 51 -54 0
54 51 -51 0
54 51 6 0
54 -6 -54 0
54 -6 -51 0
54 -6 6 0
-51 -54 -54 0
-51 -54 -51 0
-51 -54 6 0
-51 51 -54 0
-51 51 -51 0
-51 51 6 0
-51 -6 -54 0
-51 -6 -51 0
-51 -6 6 0
-6 -54 -54 0
-6 -54 -51 0
-6 -54 6 0
-6 51 -54 0
-6 51 -51 0
-6 51 6 0
-6 -6 -54 0
-6 -6 -51 0
-6 -6 6 0
32 -32 -32 0
32 -32 -28 0
32 -32 44 0
32 28 -32 0
32 28 -28 0
32 28 44 0
32 -44 -32 0
32 -44 -28 0
32 -44 44 0
-28 -32 -32 0
-28 -32 -28 0
-28 -32 44 0
-28 28 -32 0
-28 28 -28 0
-28 28 44 0
-28 -44 -32 0
-28 -44 -28 0
-28 -44 44 0
-44 -32 -32 0
-44 -32 -28 0
-44 -32 44 0
-44 28 -32 0
-44 28 -28 0
-44 28 44 0
-44 -44 -32 0
-44 -44 -28 0
-44 -44 44 0
59 -59 -59 0
59 -59 -31 0
59 -59 64 0
59 31 -59 0
59 31 -31 0
59 31 64 0
59 -64 -59 0
59 -64 -31 0
59 -64 64 0
-31 -59 -59 0
-31 -59 -31 0
-31 -59 64 0
-31 31 -59 0
-31 31 -31 0
-31 31 64 0
-31 -64 -59 0
-31 -64 -31 0
-31 -64 64 0
-64 -59 -59 0
-64 -59 -31 0
-64 -59 64 0
-64 31 -59 0
-64 31 -31 0
-64 31 64 0
-64 -64 -59 0
-64 -64 -31 0
-64 -64 64 0
72 -72 -72 0
72 -72 -45 0
72 -72 66 0
72 45 -72 0
72 45 -45 0
72 45 66 0
72 -66 -72 0
72 -66 -45 0
72 -66 66 0
-45 -72 -72 0
-45 -72 -45 0
-45 -72 66 0
-45 45 -72 0
-45 45 -45 0
-45 45 66 0
-45 -66 -72 0
-45 -66 -45 0
-45 -66 66 0
-66 -72 -72 0
-66 -72 -45 0
-66 -72 66 0
-66 45 -72 0
-66 45 -45 0
-66 45 66 0
-66 -66 -72 0
-66 -66 -45 0
-66 -66 66 0
87 -87 -87 0
87 -87 -1 0
87 -87 57 0
87 1 -87 0
87 1 -1 0
87 1 57 0
87 -57 -87 0
87 -57 -1 0
87 -57 57 0
-1 -87 -87 0
-1 -87 -1 0
-1 -87 57 0
-1 1 -87 0
-1 1 -1 0
-1 1 57 0
-1 -57 -87 0
-1 -57 -1 0
-1 -57 57 0
-57 -87 -87 0
-57 -87 -1 0
-57 -87 57 0
-57 1 -87 0
-57 1 -1 0
-57 1 57 0
-57 -57 -87 0
-57 -57 -1 0
-57 -57 57 0
63 -63 -63 0
63 -63 -37 0
63 -63 83 0
63 37 -63 0
63 37 -37 0
63 37 83 0
63 -83 -63 0
63 -83 -37 0
63 -83 83 0
-37 -63 -63 0
-37 -63 -37 0
-37 -63 83 0
-37 37 -63 0
-37 37 -37 0
-37 37 83 0
-37 -83 -63 0
-37 -83 -37 0
-37 -83 83 0
-83 -63 -63 0
-83 -63 -37 0
-83 -63 83 0
-83 37 -63 0
-83 37 -37 0
-83 37 83 0
-83 -83 -63 0
-83 -83 -37 0
-83 -83 83 0
11 -11 -11 0
11 -11 -75 0
11 -11 79 0
11 75 -11 0
11 75 -75 0
11 75 79 0
11 -79 -11 0
11 -79 -75 0
11 -79 79 0
-75 -11 -11 0
-75 -11 -75 0
-75 -11 79 0
-75 75 -11 0
-75 75 -75 0
-75 75 79 0
-75 -79 -11 0
-75 -79 -75 0
-75 -79 79 0
-79 -11 -11 0
-79 -11 -75 0
-79 -11 79 0
-79 75 -11 0
-79 75 -75 0
-79 75 79 0
-79 -79 -11 0
-79 -79 -75 0
-79 -79 79 0
52 -52 -52 0
52 -52 -53 0
52 -52 23 0
52 53 -52 0
52 53 -53 0
52 53 23 0
52 -23 -52 0
52 -23 -53 0
52 -23 23 0
-53 -52 -52 0
-53 -52 -53 0
-53 -52 23 0
-53 53 -52 0
-53 53 -53 0
-53 53 23 0
-53 -23 -52 0
-53 -23 -53 0
-53 -23 23 0
-23 -52 -52 0
-23 -52 -53 0
-23 -52 23 0
-23 53 -52 0
-23 53 -53 0
-23 53 23 0
-23 -23 -52 0
-23 -23 -53 0
-23 -23 23 0
43 -43 -43 0
43 -43 -67 0
43 -43 65 0
43 67 -43 0
43 67 -67 0
43 67 65 0
43 -65 -43 0
43 -65 -67 0
43 -65 65 0
-67 -43 -43 0
-67 -43 -67 0
-67 -43 65 0
-67 67 -43 0
-67 67 -67 0
-67 67 65 0
-67 -65 -43 0
-67 -65 -67 0
-67 -65 65 0
-65 -43 -43 0
-65 -43 -67 0
-65 -43 65 0
-65 67 -43 0
-65 67 -67 0
-65 67 65 0
-65 -65 -43 0
-65 -65 -67 0
-65 -65 65 0
46 -46 -46 0
46 -46 -4 0
46 -46 88 0
46 4 -46 0
46 4 -4 0
46 4 88 0
46 -88 -46 0
46 -88 -4 0
46 -88 88 0
-4 -46 -46 0
-4 -46 -4 0
-4 -46 88 0
-4 4 -46 0
-4 4 -4 0
-4 4 88 0
-4 -88 -46 0
-4 -88 -4 0
-4 -88 88 0
-88 -46 -46 0
-88 -46 -4 0
-88 -46 88 0
-88 4 -46 0
-88 4 -4 0
-88 4 88 0
-88 -88 -46 0
-88 -88 -4 0
-88 -88 88 0
29 -29 -29 0
29 -29 -82 0
29 -29 84 0
29 82 -29 0
29 82 -82 0
29 82 84 0
29 -84 -29 0
29 -84 -82 0
29 -84 84 0
-82 -29 -29 0
-82 -29 -82 0
-82 -29 84 0
-82 82 -29 0
-82 82 -82 0
-82 82 84 0
-82 -84 -29 0
-82 -84 -82 0
-82 -84 84 0
-84 -29 -29 0
-84 -29 -82 0
-84 -29 84 0
-84 82 -29 0
-84 82 -82 0
-84 82 84 0
-84 -84 -29 0
-84 -84 -82 0
-84 -84 84 0
60 -60 -60 0
60 -60 -81 0
60 -60 86 0
60 81 -60 0
60 81 -81 0
60 81 86 0
60 -86 -60 0
60 -86 -81 0
60 -86 86 0
-81 -60 -60 0
-81 -60 -81 0
-81 -60 86 0
-81 81 -60 0
-81 81 -81 0
-81 81 86 0
-81 -86 -60 0
-81 -86 -81 0
-81 -86 86 0
-86 -60 -60 0
-86 -60 -81 0
-86 -60 86 0
-86 81 -60 0
-86 81 -81 0
-86 81 86 0
-86 -86 -60 0
-86 -86 -81 0
-86 -86 86 0
69 -69 -69 0
69 -69 -7 0
69 -69 49 0
69 7 -69 0
69 7 -7 0
69 7 49 0
69 -49 -69 0
69 -49 -7 0
69 -49 49 0
-7 -69 -69 0
-7 -69 -7 0
-7 -69 49 0
-7 7 -69 0
-7 7 -7 0
-7 7 49 0
-7 -49 -69 0
-7 -49 -7 0
-7 -49 49 0
-49 -69 -69 0
-49 -69 -7 0
-49 -69 49 0
-49 7 -69 0
-49 7 -7 0
-49 7 49 0
-49 -49 -69 0
-49 -49 -7 0
-49 -49 49 0
35 -35 -35 0
35 -35 -30 0
35 -35 62 0
35 30 -35 0
35 30 -30 0
35 30 62 0
35 -62 -35 0
35 -62 -30 0
35 -62 62 0
-30 -35 -35 0
-30 -35 -30 0
-30 -35 62 0
-30 30 -35 0
-30 30 -30 0
-30 30 62 0
-30 -62 -35 0
-30 -62 -30 0
-30 -62 62 0
-62 -35 -35 0
-62 -35 -30 0
-62 -35 62 0
-62 30 -35 0
-62 30 -30 0
-62 30 62 0
-62 -62 -35 0
-62 -62 -30 0
-62 -62 62 0
24 -24 -24 0
24 -24 -15 0
24 -24 9 0
24 15 -24 0
24 15 -15 0
24 15 9 0
24 -9 -24 0
24 -9 -15 0
24 -9 9 0
-15 -24 -24 0
-15 -24 -15 0
-15 -24 9 0
-15 15 -24 0
-15 15 -15 0
-15 15 9 0
-15 -9 -24 0
-15 -9 -15 0
-15 -9 9 0
-9 -24 -24 0
-9 -24 -15 0
-9 -24 9 0
-9 15 -24 0
-9 15 -15 0
-9 15 9 0
-9 -9 -24 0
-9 -9 -15 0
-9 -9 9 0
70 -70 -70 0
70 -70 -76 0
70 -70 78 0
70 76 -70 0
70 76 -76 0
70 76 78 0
70 -78 -70 0
70 -78 -76 0
70 -78 78 0
-76 -70 -70 0
-76 -70 -76 0
-76 -70 78 0
-76 76 -70 0
-76 76 -76 0
-76 76 78 0
-76 -78 -70 0
-76 -78 -76 0
-76 -78 78 0
-78 -70 -70 0
-78 -70 -76 0
-78 -70 78 0
-78 76 -70 0
-78 76 -76 0
-78 76 78 0
-78 -78 -70 0
-78 -78 -76 0
-78 -78 78 0
22 -22 -22 0
22 -22 -71 0
22 -22 25 0
22 71 -22 0
22 71 -71 0
22 71 25 0
22 -25 -22 0
22 -25 -71 0
22 -25 25 0
-71 -22 -22 0
-71 -22 -71 0
-71 -22 25 0
-71 71 -22 0
-71 71 -71 0
-71 71 25 0
-71 -25 -22 0
-71 -25 -71 0
-71 -25 25 0
-25 -22 -22 0
-25 -22 -71 0
-25 -22 25 0
-25 71 -22 0
-25 71 -71 0
-25 71 25 0
-25 -25 -22 0
-25 -25 -71 0
-25 -25 25 0
39 -39 -39 0
39 -39 -5 0
39 -39 56 0
39 5 -39 0
39 5 -5 0
39 5 56 0
39 -56 -39 0
39 -56 -5 0
39 -56 56 0
-5 -39 -39 0
-5 -39 -5 0
-5 -39 56 0
-5 5 -39 0
-5 5 -5 0
-5 5 56 0
-5 -56 -39 0
-5 -56 -5 0
-5 -56 56 0
-56 -39 -39 0
-56 -39 -5 0
-56 -39 56 0
-56 5 -39 0
-56 5 -5 0
-56 5 56 0
-56 -56 -39 0
-56 -56 -5 0
-56 -56 56 0
20 -20 -20 0
20 -20 -73 0
20 -20 48 0
20 73 -20 0
20 73 -73 0
20 73 48 0
20 -48 -20 0
20 -48 -73 0
20 -48 48 0
-73 -20 -20 0
-73 -20 -73 0
-73 -20 48 0
-73 73 -20 0
-73 73 -73 0
-73 73 48 0
-73 -48 -20 0
-73 -48 -73 0
-73 -48 48 0
-48 -20 -20 0
-48 -20 -73 0
-48 -20 48 0
-48 73 -20 0
-48 73 -73 0
-48 73 48 0
-48 -48 -20 0
-48 -48 -73 0
-48 -48 48 0
18 -18 -18 0
18 -18 -85 0
18 -18 61 0
18 85 -18 0
18 85 -85 0
18 85 61 0
18 -61 -18 0
18 -61 -85 0
18 -61 61 0
-85 -18 -18 0
-85 -18 -85 0
-85 -18 61 0
-85 85 -18 0
-85 85 -85 0
-85 85 61 0
-85 -61 -18 0
-85 -61 -85 0
-85 -61 61 0
-61 -18 -18 0
-61 -18 -85 0
-61 -18 61 0
-61 85 -18 0
-61 85 -85 0
-61 85 61 0
-61 -61 -18 0
-61 -61 -85 0
-61 -61 61 0
-36 -33 -19 0
-58 -6 -44 0
-64 -66 -57 0
-83 -79 -23 0
-65 -88 -84 0
-86 -49 -62 0
-9 -78 -25 0
-56 -48 -61 0
16 10 21 0
38 54 28 0
59 72 1 0
63 11 53 0
43 46 82 0
60 69 30 0
24 70 71 0
39 20 85 0
-16 -27 0
-8 -27 0
-41 -27 0
-38 -68 0
-51 -68 0
-32 -68 0
-59 -80 0
-45 -80 0
-87 -80 0
-63 -77 0
-75 -77 0
-52 -77 0
-43 -26 0
-4 -26 0
-29 -26 0
-60 -50 0
-7 -50 0
-35 -50 0
-24 -17 0
-76 -17 0
-22 -17 0
-39 -42 0
-73 -42 0
-18 -42 0
-16 -55 0
-8 -55 0
-41 -55 0
-38 -40 0
-51 -40 0
-32 -40 0
-59 -13 0
-45 -13 0
-87 -13 0
-63 -3 0
-75 -3 0
-52 -3 0
-43 -14 0
-4 -14 0
-29 -14 0
-60 -12 0
-7 -12 0
-35 -12 0
-24 -34 0
-76 -34 0
-22 -34 0
-39 -47 0
-73 -47 0
-18 -47 0
27 68 80 77 26 50 17 42 0
55 40 13 3 14 12 34 47 0
